% ----DATA VARIABLES----

t=12;%number of attributes
k=6;%max length of the support set
n=30;%number of positive instances
m=30;%number of negative instances
c=3;%number of atMostOne Constraints

% ----OMEGAS----

omegap= [| 0, 0, 0, 0, 0, 0, 0, 0, 1, 0, 0, 0|
 0, 0, 0, 1, 0, 0, 0, 0, 1, 1, 0, 1|
 1, 0, 0, 0, 0, 1, 1, 0, 1, 0, 0, 1|
 0, 0, 1, 0, 0, 1, 1, 1, 1, 0, 1, 0|
 1, 1, 1, 0, 1, 1, 0, 0, 0, 1, 0, 1|
 1, 1, 0, 0, 1, 1, 1, 0, 1, 0, 0, 0|
 1, 0, 0, 1, 1, 0, 1, 0, 1, 1, 1, 1|
 0, 1, 1, 0, 0, 0, 0, 0, 0, 1, 0, 0|
 1, 0, 0, 1, 0, 0, 0, 0, 1, 0, 1, 1|
 0, 1, 1, 1, 1, 1, 0, 1, 0, 0, 0, 1|
 1, 0, 0, 1, 0, 1, 0, 0, 1, 0, 0, 0|
 0, 0, 0, 0, 1, 0, 1, 0, 0, 0, 0, 1|
 1, 1, 0, 0, 1, 0, 1, 1, 1, 1, 1, 0|
 0, 1, 1, 0, 1, 1, 0, 0, 1, 0, 1, 0|
 0, 0, 0, 1, 0, 0, 0, 0, 0, 0, 0, 1|
 1, 1, 1, 0, 1, 0, 0, 0, 1, 1, 0, 0|
 1, 1, 0, 1, 0, 0, 0, 0, 0, 1, 0, 0|
 1, 1, 0, 0, 1, 1, 0, 1, 0, 1, 0, 1|
 0, 0, 0, 1, 0, 1, 1, 0, 0, 0, 0, 1|
 0, 0, 1, 0, 0, 1, 0, 0, 1, 0, 1, 1|
 1, 1, 1, 0, 1, 1, 1, 1, 0, 0, 0, 0|
 0, 1, 0, 0, 0, 0, 1, 1, 0, 1, 1, 0|
 0, 1, 0, 1, 0, 1, 1, 1, 0, 1, 0, 0|
 0, 0, 0, 1, 1, 0, 1, 0, 0, 0, 1, 0|
 0, 0, 0, 0, 1, 1, 0, 0, 1, 0, 0, 0|
 1, 0, 1, 1, 1, 1, 0, 0, 0, 0, 0, 0|
 1, 0, 0, 0, 0, 1, 1, 1, 0, 1, 0, 0|
 1, 0, 0, 1, 0, 0, 1, 1, 0, 1, 0, 1|
 0, 1, 1, 1, 1, 1, 1, 1, 1, 1, 0, 1|
 1, 0, 0, 1, 0, 0, 0, 0, 1, 1, 1, 1|];

omegan= [| 0, 1, 1, 0, 1, 0, 1, 1, 0, 1, 1, 0|
 1, 1, 1, 0, 1, 1, 1, 1, 1, 1, 1, 0|
 1, 1, 1, 0, 1, 0, 1, 0, 1, 0, 1, 1|
 1, 0, 0, 0, 1, 1, 0, 1, 1, 0, 0, 0|
 1, 1, 0, 0, 1, 0, 0, 0, 0, 1, 0, 1|
 1, 0, 0, 1, 0, 1, 0, 1, 1, 1, 0, 1|
 0, 0, 1, 1, 1, 1, 0, 1, 1, 0, 1, 0|
 0, 0, 0, 0, 1, 0, 1, 0, 0, 1, 0, 0|
 1, 0, 1, 0, 0, 0, 0, 0, 1, 1, 1, 0|
 1, 0, 0, 1, 1, 1, 0, 0, 0, 0, 0, 1|
 1, 0, 0, 1, 1, 0, 1, 1, 1, 0, 1, 1|
 0, 0, 0, 0, 1, 0, 1, 1, 1, 1, 0, 1|
 0, 1, 1, 0, 0, 1, 0, 1, 0, 0, 1, 1|
 0, 1, 1, 0, 1, 0, 1, 0, 0, 0, 0, 1|
 0, 1, 1, 1, 0, 0, 0, 1, 1, 0, 0, 1|
 1, 1, 1, 1, 1, 1, 1, 0, 0, 0, 1, 0|
 0, 1, 0, 1, 1, 1, 1, 0, 1, 1, 1, 1|
 0, 1, 1, 1, 1, 0, 0, 0, 0, 0, 0, 0|
 1, 0, 0, 0, 0, 0, 1, 1, 0, 1, 1, 0|
 0, 0, 1, 1, 1, 0, 1, 1, 0, 1, 1, 0|
 0, 1, 0, 1, 0, 0, 0, 0, 1, 1, 1, 1|
 0, 0, 0, 1, 1, 0, 1, 0, 1, 0, 0, 0|
 1, 1, 1, 0, 0, 1, 1, 0, 0, 1, 1, 1|
 1, 1, 0, 0, 0, 0, 1, 0, 1, 0, 1, 1|
 1, 0, 0, 1, 1, 1, 0, 1, 1, 0, 0, 0|
 0, 1, 0, 1, 1, 0, 1, 0, 1, 0, 1, 1|
 0, 0, 0, 1, 0, 0, 0, 1, 1, 0, 1, 1|
 1, 0, 1, 1, 0, 1, 1, 1, 0, 1, 1, 0|
 0, 1, 0, 1, 0, 0, 1, 0, 0, 0, 1, 1|
 1, 0, 0, 0, 0, 0, 0, 1, 0, 0, 0, 1|];

% ----CONSTRAINS----

atMostOne=[{10, 10, 6, 2}, {10, 7}, {5, 11}];